! Touchstone file exported from HFSS 2025.2.4
!        File:           C:/Users/devel/OneDrive/Documents/Velocity-Connect/hfss/Velocity_Connect_PTF_V4_FourPort_Feedthrough.aedt
!        Generated:      12:59:01 PM Aug 25, 2026
!        Design:         VC_PTF_V4_FourPortFeedthrough
!        Project:        Velocity_Connect_PTF_V4_FourPort_Feedthrough
!
# GHz S RI R 50.000000
! Terminal data exported
! Port[1] = Port1_DonorMinus
! Port[2] = Port2_DonorPlus
! Port[3] = Port3_ServiceMinus
! Port[4] = Port4_ServicePlus
3.3                            0.000512194697638079 0.00228184955032691 0                0                0                0                -0.989542933546316 -0.127281626972507
                               0                0                0.000349521997653846 0.00176587843259483 -0.989537406124801 -0.127472820653313 0                0
                               0                0                -0.989537406124801 -0.127472820653313 -0.000948579717497322 0.00160942521972779 0                0
                               -0.989542933546315 -0.127281626972507 0                0                0                0                -0.00123800239608713 0.00204460016300695
3.325                          0.000581307510640722 0.00214088498933688 0                0                0                0                -0.992180708615053 -0.104664483173574
                               0                0                0.000414120069071566 0.00162056245294964 -0.992179444658992 -0.10485699005343 0                0
                               0                0                -0.992179444658992 -0.104856990053431 -0.000884450204987135 0.00149407647510181 0                0
                               -0.992180708615052 -0.104664483173574 0                0                0                0                -0.00115870198890988 0.0019454623753362
3.35                           0.000643576191221332 0.00199740775821307 0                0                0                0                -0.994301484668626 -0.0819933036893375
                               0                0                0.000472031944275055 0.00147254698613221 -0.99430453826921 -0.0821870259770091 0                0
                               0                0                -0.99430453826921 -0.0821870259770091 -0.00082594839726814 0.00137600250111839 0                0
                               -0.994301484668625 -0.0819933036893376 0                0                0                0                -0.00108398892503774 0.00184331247216199
3.375                          0.000698915225228231 0.00185172508535327 0                0                0                0                -0.995904217093713 -0.0592798934770423
                               0                0                0.000523159717936702 0.00132212810153956 -0.995911639980341 -0.0594747317606804 0                0
                               0                0                -0.995911639980341 -0.0594747317606804 -0.000773180463402166 0.00125545476071933 0                0
                               -0.995904217093713 -0.0592798934770424 0                0                0                0                -0.00101398100823963 0.00173835311343056
3.4                            0.00074724949102311 0.0017041483729811 0                0                0                0                -0.996988124943572 -0.0365360762612024
                               0                0                0.000567415956426327 0.00116960537683588 -0.996999966449237 -0.0367319295710467 0                0
                               0                0                -0.996999966449237 -0.0367319295710467 -0.000726243426177283 0.00113268980169471 0                0
                               -0.996988124943572 -0.0365360762612025 0                0                0                0                -0.000948787261693728 0.00163079345813756
3.425                          0.000788514770008894 0.00155499334088939 0                0                0                0                -0.997552690968513 -0.0137736892289506
                               0                0                0.000604723936977574 0.00101528195532447 -0.99756899799749 -0.0139704550996932 0                0
                               0                0                -0.99756899799749 -0.0139704550996932 -0.000685224730848581 0.00100796921030271 0                0
                               -0.997552690968513 -0.0137736892289506 0                0                0                0                -0.000888507368194766 0.00152084880020386
3.45                           0.000822658342761519 0.00140458008891406 0                0                0                0                -0.997597661578578 0.00899542223436341
                               0                0                0.000635017960472401 0.000859464566684903 -0.997618478576266 0.00879784770171186 0                0
                               0                0                -0.997618478576266 0.00879784770171189 -0.00065020176980895 0.000881559512144899 0                0
                               -0.997597661578579 0.00899542223436336 0                0                0                0                -0.0008332311231524 0.00140874014494905
3.475                          0.000849639659608587 0.00125323306534428 0                0                0                0                -0.997123046742932 0.0317594097709643
                               0                0                0.000658243732111827 0.000702463499733333 -0.997148415667668 0.0315611318478505 0                0
                               0                0                -0.997148415667668 0.0315611318478505 -0.000621241369596153 0.000753732013103465 0                0
                               -0.997123046742932 0.0317594097709642 0                0                0                0                -0.000783037906961219 0.00129469372611415
3.5                            0.000869431072963083 0.00110128092965685 0                0                0                0                -0.996129119830223 0.0545064272398477
                               0                0                0.000674358802953495 0.000544592516563714 -0.996159080126895 0.0543075525097075 0                0
                               0                0                -0.996159080126894 0.0543075525097075 -0.00059839924754681 0.000624762573800101 0                0
                               -0.996129119830223 0.0545064272398477 0                0                0                0                -0.000737996183464119 0.00117894046412271
3.525                          0.000882018617231758 0.000949056299327036 0                0                0                0                -0.994616417393994 0.077224635871752
                               0                0                0.000683333064045717 0.000386168698250372 -0.994651005969241 0.0770252721703913 0                0
                               0                0                -0.99465100596924 0.0770252721703913 -0.00058171944625618 0.000494931311796883 0                0
                               -0.994616417393994 0.0772246358717519 0                0                0                0                -0.000698163031268578 0.00106171536704037
3.55                           0.000887402820732338 0.000796895372026627 0                0                0                0                -0.992585738906937 0.0999022093926294
                               0                0                0.000685149283706494 0.000227512213242163 -0.992624990105731 0.0997024657495193 0                0
                               0                0                -0.99262499010573 0.0997024657495193 -0.000571233754804667 0.000364522226628579 0                0
                               -0.992585738906937 0.0999022093926294 0                0                0                0                -0.000663583714635906 0.000943256876485183
3.575                          0.000885599532779644 0.000645137416279743 0                0                0                0                -0.990038146447521 0.12252733911867
                               0                0                0.0006798036773773 6.89460006604673E-05 -0.990082092030929 0.122327325699192 0                0
                               0                0                -0.990082092030927 0.122327325699191 -0.000566961126432705 0.000233822743735515 0                0
                               -0.990038146447522 0.12252733911867 0                0                0                0                -0.00063429130052032 0.000823806161545582
3.6                            0.000876640747983775 0.000494124125608658 0                0                0                0                -0.98697496434223 0.145088239026253
                               0                0                0.000667306498462184 -8.9204638072811E-05 -0.987023633466118 0.144888067074897 0                0
                               0                0                -0.987023633466116 0.144888067074897 -0.000568907102990449 0.000103123174453674 0                0
                               -0.98697496434223 0.145088239026253 0                0                0                0                -0.000610306328095151 0.00070360636456508
3.625                          0.00086057540886794 0.000344198833363424 0                0                0                0                -0.98339777876629 0.167573150800491
                               0                0                0.00064768263764026 -0.00024661254450285 -0.983451197960782 0.167372932584999 0                0
                               0                0                -0.98345119796078 0.167372932584999 -0.000577063257019392 -2.72839095891758E-05 0                0
                               -0.98339777876629 0.167573150800491 0                0                0                0                -0.000591636536752937 0.000582901803440134
3.65                           0.000837470167217091 0.000195705587776314 0                0                0                0                -0.979308437305456 0.189970348866336
                               0                0                0.000620972217343581 -0.000402949309051582 -0.979366630454923 0.189770197622717 0                0
                               0                0                -0.979366630454922 0.189770197622717 -0.000591406662730998 -0.00015710438803459 0                0
                               -0.979308437305456 0.189970348866336 0                0                0                0                -0.000578276658121973 0.000461937135835589
3.675                          0.000807410084140716 4.89880892969736E-05 0                0                0                0                -0.974709048481017 0.212268145406438
                               0                0                0.000587231167448909 -0.000557885979713537 -0.974772036804399 0.212068175284796 0                0
                               0                0                -0.974772036804397 0.212068175284796 -0.000611899407419433 -0.000286043388300936 0                0
                               -0.974709048481017 0.212268145406438 0                0                0                0                -0.000570208277094674 0.000340956491438162
3.7                            0.000770499248700145 -9.5611505082381E-05 0                0                0                0                -0.969601981239793 0.234454895370222
                               0                0                0.000546531767746371 -0.000711093873961496 -0.969669783271071 0.234255221381277 0                0
                               0                0                -0.969669783271069 0.234255221381277 -0.000638488154945375 -0.000413806164581644 0                0
                               -0.969601981239793 0.234454895370222 0                0                0                0                -0.000567399766204321 0.00022020257902043
3.725                          0.000726861295193461 -0.000237753903048696 0                0                0                0                -0.963989864410486 0.256519001478841
                               0                0                0.000498963142467453 -0.000862245492467892 -0.964062495979141 0.256319739441012 0                0
                               0                0                -0.96406249597914 0.256319739441012 -0.00067110377286407 -0.000540099055380188 0                0
                               -0.963989864410486 0.25651900147884 0                0                0                0                -0.000569806296963749 9.99157756761188E-05
3.75                           0.000676639799780787 -0.000377104113467383 0                0                0                0                -0.957875586127304 0.278448919230836
                               0                0                0.000444631692078545 -0.00101101553134752 -0.957953060338608 0.278250185717735 0                0
                               0                0                -0.957953060338607 0.278250185717734 -0.000709661034505378 -0.000664630514100298 0                0
                               -0.957875586127304 0.278448919230835 0                0                0                0                -0.000577369930943948 -1.9666793922712E-05
3.775                          0.000619998538156846 -0.000513332985084556 0                0                0                0                -0.951262293221314 0.300233161913525
                               0                0                0.000383661447709206 -0.00115708198766658 -0.951344620436329 0.300035074201673 0                0
                               0                0                -0.951344620436329 0.300035074201673 -0.000754058406846601 -0.000787112205673799 0                0
                               -0.951262293221313 0.300233161913525 0                0                0                0                -0.000590019792489483 -0.000138312179993903
3.8                            0.000557121587404053 -0.000646118831617696 0                0                0                0                -0.94415339057951 0.321860305625238
                               0                0                0.000316194334001759 -0.00130012735098109 -0.944240578394711 0.321662981641816 0                0
                               0                0                -0.944240578394712 0.321662981641816 -0.000804177934343913 -0.000907260160700869 0                0
                               -0.944153390579509 0.321860305625238 0                0                0                0                -0.000607672324009102 -0.000255792523302455
