! Touchstone file exported from HFSS 2025.2.4
!        File:           C:/Users/devel/OneDrive/Documents/Velocity-Connect/hfss/Velocity_Connect_PTF_V5_FourPort_Delay25ps.aedt
!        Generated:      02:44:13 PM Aug 25, 2026
!        Design:         VC_PTF_V5_FourPortDelay25ps
!        Project:        Velocity_Connect_PTF_V5_FourPort_Delay25ps
!
# GHz S RI R 50.000000
! Terminal data exported
! Port[1] = Port1_DonorMinus
! Port[2] = Port2_DonorPlus
! Port[3] = Port3_ServiceMinus
! Port[4] = Port4_ServicePlus
3.3                            0.000102345935569441 0.000286949715582078 0                0                0                0                -0.989514583555161 -0.127719104843033
                               0                0                0.000780151401209641 -0.000944525121426658 -0.922790637794117 0.378381143277139 0                0
                               0                0                -0.922790637794117 0.378381143277138 -0.000902396163950547 -0.000255780131980099 0                0
                               -0.989514583555161 -0.127719104843033 0                0                0                0                -0.000311847918889077 0.000229304589894934
3.325                          0.000138994064512469 0.000159650839024814 0                0                0                0                -0.992161659414112 -0.105105695910429
                               0                0                0.00071976139933526 -0.0010535795336301 -0.912333903120686 0.4029131749097  0                0
                               0                0                -0.912333903120686 0.4029131749097  -0.000931057041875611 -0.000325779004351842 0                0
                               -0.992161659414112 -0.105105695910429 0                0                0                0                -0.000287511381113168 0.000110317690354636
3.35                           0.000169988487802968 3.03626495477548E-05 0                0                0                0                -0.994292034799333 -0.0824380147382149
                               0                0                0.000653848195704595 -0.00115910221761835 -0.90122518003565 0.427156568519165 0                0
                               0                0                -0.90122518003565 0.427156568519165 -0.000963636451182379 -0.000393787981262176 0                0
                               -0.994292034799333 -0.0824380147382149 0                0                0                0                -0.000268941358314722 -1.01519231286991E-05
3.375                          0.000195234640032032 -0.000100659471754989 0                0                0                0                -0.995904610817121 -0.0597278658641297
                               0                0                0.000582619473728009 -0.00126080017945364 -0.889472425262658 0.451093999604897 0                0
                               0                0                -0.889472425262658 0.451093999604897 -0.000999999970474971 -0.000459590351658187 0                0
                               -0.995904610817121 -0.0597278658641296 0                0                0                0                -0.000256213495611575 -0.000131832868985044
3.4                            0.000214650450312811 -0.000233156730886025 0                0                0                0                -0.996998558352183 -0.0369870758056923
                               0                0                0.000506297286003555 -0.00135839450841811 -0.877084056250301 0.474708363027466 0                0
                               0                0                -0.877084056250302 0.474708363027467 -0.00104000289079252 -0.000522979546002153 0                0
                               -0.996998558352183 -0.0369870758056922 0                0                0                0                -0.000249389814715132 -0.000254451040001654
3.425                          0.000228166265553397 -0.00036686749576343 0                0                0                0                -0.997573318498747 -0.0142274868809251
                               0                0                0.000425117088414079 -0.00145162066951952 -0.864068945070568 0.497982785275993 0                0
                               0                0                -0.864068945070567 0.497982785275993 -0.00108349088706946 -0.00058375921771039 0                0
                               -0.997573318498748 -0.0142274868809251 0                0                0                0                -0.000248518834720042 -0.000377730262894905
3.45                           0.000235724762280988 -0.000501527831914852 0                0                0                0                -0.997628602847861 0.00853904897895779
                               0                0                0.000339326857666044 -0.00154022874461335 -0.850436411987245 0.520900636555863 0                0
                               0                0                -0.850436411987245 0.520900636555863 -0.00113030060109484 -0.000641743309663016 0                0
                               -0.997628602847861 0.00853904897895779 0                0                0                0                -0.000253635711595999 -0.000501392911344073
3.475                          0.000237280853424147 -0.000636872001884844 0                0                0                0                -0.997164393630683 0.0313006764213088
                               0                0                0.00024918629099337 -0.00162398364351262 -0.836196218700568 0.543445542687301 0                0
                               0                0                -0.836196218700567 0.543445542687301 -0.00118026014334775 -0.000696756125464098 0                0
                               -0.997164393630684 0.0313006764213087 0                0                0                0                -0.000264762388564206 -0.000625160474683347
3.5                            0.000232801595762471 -0.000772632932020855 0                0                0                0                -0.996180943717715 0.0540455428646408
                               0                0                0.000154966083056619 -0.00170266530528447 -0.821358561274725 0.565601396805574 0                0
                               0                0                -0.821358561274726 0.565601396805574 -0.00123318952419975 -0.000748632422901538 0                0
                               -0.996180943717716 0.0540455428646408 0                0                0                0                -0.000281907750193494 -0.000748754085515783
3.525                          0.000222266102963585 -0.0009085426510148 0                0                0                0                -0.994678776474003 0.0767618046884441
                               0                0                5.69472716626154E-05 -0.00177606890821922 -0.805934062755221 0.587352370853963 0                0
                               0                0                -0.80593406275522 0.587352370853963 -0.00128890102762625 -0.000797217544435828 0                0
                               -0.994678776474004 0.076761804688444 0                0                0                0                -0.000305067773826699 -0.000871895010463232
3.55                           0.000205665468267563 -0.00104433270516419 0                0                0                0                -0.992658685470466 0.0994376334166094
                               0                0                -4.4579359125683E-05 -0.0018440051047704 -0.789933765483323 0.608682926860923 0                0
                               0                0                -0.789933765483323 0.608682926860923 -0.00134719954274012 -0.000842367596616412 0                0
                               -0.992658685470466 0.0994376334166093 0                0                0                0                -0.000334225672833326 -0.000994305109086544
3.575                          0.00018300269996799 -0.00117973455577595 0                0                0                0                -0.99012173405162 0.122061221890842
                               0                0                -0.00014931383255743 -0.00190630029516234 -0.773369123115194 0.629577827993237 0                0
                               0                0                -0.773369123115194 0.629577827993237 -0.00140788287013357 -0.000883949687139121 0                0
                               -0.990121734051622 0.122061221890842 0                0                0                0                -0.000369352027163381 -0.00111570726669142
3.6                            0.000154292671873644 -0.0013144799644628 0                0                0                0                -0.987069254760102 0.14462079043046
                               0                0                -0.000256947505715098 -0.00196279695039049 -0.756251992353494 0.650022149377313 0                0
                               0                0                -0.756251992353494 0.650022149377313 -0.00147074202114804 -0.000921842224910763 0                0
                               -0.987069254760103 0.14462079043046 0                0                0                0                -0.00041040489771117 -0.0012358258072723
3.625                          0.00011956208996821 -0.00144830137227745 0                0                0                0                -0.983502848618453 0.167104592974985
                               0                0                -0.000367163586961499 -0.00201335399209119 -0.738594624399539 0.670001288681166 0                0
                               0                0                -0.738594624399539 0.670001288681166 -0.00153556152881586 -0.000955935285018622 0                0
                               -0.983502848618454 0.167104592974985 0                0                0                0                -0.000457329922105401 -0.00135438689323215
3.65                           7.88494754830486E-05 -0.00158093227869051 0                0                0                0                -0.979424384268823 0.189500923205949
                               0                0                -0.000479637663473925 -0.00205784723326441 -0.720409656134256 0.689500976449989 0                0
                               0                0                -0.720409656134256 0.689500976449988 -0.00160211978928326 -0.000986131036999034 0                0
                               -0.979424384268824 0.189500923205949 0                0                0                0                -0.000510060390654974 -0.00147111891875234
3.675                          3.22051636305054E-05 -0.00171210762635013 0                0                0                0                -0.974835996971298 0.211798120644379
                               0                0                -0.000594038258662055 -0.00209616988018797 -0.701710101036442 0.708507286188641 0                0
                               0                0                -0.701710101036442 0.708507286188641 -0.0016701894520595 -0.00101234423132135 0                0
                               -0.974835996971298 0.211798120644379 0                0                0                0                -0.000568517302336699 -0.00158575290376673
3.7                            -2.03086837253527E-05 -0.0018415641973614 0                0                0                0                -0.969740087461693 0.233984576720426
                               0                0                -0.000710027439329901 -0.00212823309212724 -0.682509339846909 0.727006644184752 0                0
                               0                0                -0.682509339846909 0.727006644184752 -0.0017395378764353 -0.00103450273561903 0                0
                               -0.969740087461694 0.233984576720426 0                0                0                0                -0.000632609401841473 -0.00169802289542418
3.725                          -7.86180541000374E-05 -0.00196904102650296 0                0                0                0                -0.964139320669788 0.256048740811677
                               0                0                -0.000827261491917498 -0.00215396659168958 -0.662821110987312 0.744985839066561 0                0
                               0                0                -0.662821110987313 0.744985839066562 -0.00180992766987698 -0.00105254810897951 0                0
                               -0.964139320669789 0.256048740811677 0                0                0                0                -0.000702233199827007 -0.00180766638370123
3.75                           -0.000142637052647109 -0.00209427983635363 0                0                0                0                -0.958036624299037 0.277979126246691
                               0                0                -0.000945391686041195 -0.00217331931498907 -0.642659500742536 0.762432031090017 0                0
                               0                0                -0.642659500742536 0.762432031090017 -0.00188111732216148 -0.00106643619962881 0                0
                               -0.958036624299038 0.277979126246692 0                0                0                0                -0.000777272979603596 -0.00191442473745992
3.775                          -0.000212267866969948 -0.00221702549874478 0                0                0                0                -0.951435187268951 0.29976431627038
                               0                0                -0.00106406514183169 -0.00218626008724939 -0.622038933215607 0.779332761150059 0                0
                               0                0                -0.622038933215607 0.779332761150059 -0.00195286194648609 -0.00107613774867933 0                0
                               -0.951435187268951 0.29976431627038 0                0                0                0                -0.000857600794527767 -0.00201804366672688
3.8                            -0.000287400733568446 -0.00233702652629135 0                0                0                0                -0.944338458021411 0.321392969967881
                               0                0                -0.00118292581526287 -0.00219277830617155 -0.600974160064173 0.795675959511423 0                0
                               0                0                -0.600974160064173 0.795675959511423 -0.00202491413580494 -0.00108163898033618 0                0
                               -0.944338458021411 0.321392969967882 0                0                0                0                -0.000943076461334823 -0.00211827371632792
